param n := 60;
param c := 10000
param : V : p w :=
   0	 361	 351
   1	 268	 258
   2	 401	 391
   3	 369	 359
   4	 269	 259
   5	 392	 382
   6	 386	 376
   7	 318	 308
   8	 326	 316
   9	 455	 445
  10	 285	 275
  11	 290	 280
  12	 436	 426
  13	 286	 276
  14	 308	 298
  15	 478	 468
  16	 269	 259
  17	 283	 273
  18	 463	 453
  19	 268	 258
  20	 299	 289
  21	 453	 443
  22	 263	 253
  23	 314	 304
  24	 390	 380
  25	 271	 261
  26	 369	 359
  27	 387	 377
  28	 314	 304
  29	 329	 319
  30	 493	 483
  31	 264	 254
  32	 273	 263
  33	 461	 451
  34	 271	 261
  35	 298	 288
  36	 383	 373
  37	 273	 263
  38	 374	 364
  39	 427	 417
  40	 286	 276
  41	 317	 307
  42	 373	 363
  43	 304	 294
  44	 353	 343
  45	 452	 442
  46	 264	 254
  47	 314	 304
  48	 422	 412
  49	 266	 256
  50	 342	 332
  51	 379	 369
  52	 272	 262
  53	 379	 369
  54	 439	 429
  55	 262	 252
  56	 329	 319
  57	 407	 397
  58	 276	 266
  59	 347	 337
;

set E :=
   0	   2
   0	   4
   0	   5
   0	   6
   0	   7
   0	   8
   0	  13
   0	  14
   0	  15
   0	  16
   0	  17
   0	  18
   0	  20
   0	  21
   0	  22
   0	  24
   0	  25
   0	  28
   0	  31
   0	  33
   0	  34
   0	  35
   0	  38
   0	  39
   0	  40
   0	  41
   0	  44
   0	  45
   0	  49
   0	  51
   0	  54
   0	  57
   0	  59
   1	   3
   1	   7
   1	   9
   1	  11
   1	  13
   1	  14
   1	  15
   1	  16
   1	  17
   1	  18
   1	  19
   1	  25
   1	  28
   1	  29
   1	  30
   1	  31
   1	  35
   1	  36
   1	  38
   1	  39
   1	  40
   1	  41
   1	  42
   1	  45
   1	  47
   1	  48
   1	  50
   1	  52
   1	  53
   1	  55
   1	  56
   1	  57
   1	  58
   2	   6
   2	   7
   2	   9
   2	  10
   2	  14
   2	  16
   2	  17
   2	  19
   2	  29
   2	  33
   2	  37
   2	  38
   2	  39
   2	  40
   2	  41
   2	  42
   2	  44
   2	  46
   2	  47
   2	  49
   2	  50
   2	  53
   2	  55
   2	  56
   3	   4
   3	   5
   3	   7
   3	   9
   3	  10
   3	  13
   3	  14
   3	  15
   3	  16
   3	  18
   3	  19
   3	  21
   3	  23
   3	  27
   3	  28
   3	  29
   3	  36
   3	  37
   3	  38
   3	  39
   3	  40
   3	  41
   3	  44
   3	  48
   3	  51
   3	  52
   3	  54
   3	  55
   3	  56
   3	  57
   4	   5
   4	   7
   4	   9
   4	  11
   4	  12
   4	  15
   4	  18
   4	  19
   4	  20
   4	  21
   4	  22
   4	  23
   4	  24
   4	  25
   4	  26
   4	  28
   4	  32
   4	  35
   4	  36
   4	  39
   4	  40
   4	  42
   4	  44
   4	  47
   4	  49
   4	  50
   4	  52
   4	  54
   4	  55
   4	  56
   4	  57
   5	   9
   5	  10
   5	  11
   5	  12
   5	  13
   5	  14
   5	  15
   5	  16
   5	  18
   5	  19
   5	  22
   5	  26
   5	  34
   5	  35
   5	  37
   5	  38
   5	  39
   5	  40
   5	  46
   5	  47
   5	  50
   5	  51
   5	  56
   6	  10
   6	  11
   6	  13
   6	  15
   6	  16
   6	  18
   6	  19
   6	  22
   6	  23
   6	  26
   6	  27
   6	  28
   6	  29
   6	  30
   6	  32
   6	  33
   6	  36
   6	  37
   6	  39
   6	  40
   6	  42
   6	  43
   6	  47
   6	  50
   6	  52
   6	  56
   6	  57
   7	   9
   7	  13
   7	  15
   7	  17
   7	  18
   7	  23
   7	  25
   7	  29
   7	  30
   7	  32
   7	  33
   7	  34
   7	  35
   7	  36
   7	  38
   7	  39
   7	  40
   7	  41
   7	  43
   7	  44
   7	  45
   7	  47
   7	  48
   7	  52
   7	  53
   7	  54
   7	  56
   7	  58
   7	  59
   8	  10
   8	  12
   8	  14
   8	  15
   8	  16
   8	  17
   8	  19
   8	  21
   8	  23
   8	  26
   8	  27
   8	  29
   8	  34
   8	  39
   8	  40
   8	  43
   8	  44
   8	  49
   8	  51
   8	  53
   8	  56
   8	  57
   9	  15
   9	  16
   9	  18
   9	  19
   9	  20
   9	  21
   9	  22
   9	  24
   9	  25
   9	  29
   9	  30
   9	  31
   9	  33
   9	  36
   9	  38
   9	  40
   9	  43
   9	  47
   9	  48
   9	  49
   9	  50
   9	  51
   9	  53
   9	  57
   9	  58
  10	  11
  10	  12
  10	  15
  10	  16
  10	  17
  10	  18
  10	  23
  10	  25
  10	  27
  10	  30
  10	  35
  10	  36
  10	  41
  10	  45
  10	  46
  10	  47
  10	  48
  10	  49
  10	  50
  10	  52
  10	  53
  10	  55
  10	  58
  10	  59
  11	  14
  11	  16
  11	  21
  11	  22
  11	  23
  11	  26
  11	  27
  11	  30
  11	  31
  11	  32
  11	  33
  11	  34
  11	  37
  11	  39
  11	  41
  11	  42
  11	  44
  11	  45
  11	  46
  11	  49
  11	  50
  11	  52
  11	  54
  11	  55
  11	  56
  11	  57
  11	  59
  12	  13
  12	  15
  12	  21
  12	  23
  12	  24
  12	  27
  12	  30
  12	  33
  12	  34
  12	  35
  12	  36
  12	  40
  12	  43
  12	  45
  12	  46
  12	  47
  12	  48
  12	  50
  12	  53
  12	  55
  12	  56
  12	  57
  12	  58
  12	  59
  13	  14
  13	  16
  13	  20
  13	  21
  13	  24
  13	  25
  13	  29
  13	  30
  13	  32
  13	  33
  13	  34
  13	  35
  13	  37
  13	  38
  13	  39
  13	  40
  13	  41
  13	  42
  13	  44
  13	  45
  13	  46
  13	  47
  13	  48
  13	  51
  13	  54
  13	  57
  13	  58
  14	  17
  14	  20
  14	  21
  14	  22
  14	  23
  14	  27
  14	  33
  14	  35
  14	  36
  14	  37
  14	  38
  14	  40
  14	  41
  14	  42
  14	  43
  14	  46
  14	  47
  14	  50
  14	  52
  14	  54
  14	  57
  14	  59
  15	  16
  15	  17
  15	  18
  15	  21
  15	  22
  15	  23
  15	  25
  15	  28
  15	  29
  15	  30
  15	  31
  15	  33
  15	  35
  15	  36
  15	  37
  15	  39
  15	  42
  15	  43
  15	  44
  15	  45
  15	  46
  15	  47
  15	  48
  15	  49
  15	  50
  15	  51
  15	  57
  15	  58
  15	  59
  16	  17
  16	  19
  16	  21
  16	  22
  16	  24
  16	  26
  16	  27
  16	  28
  16	  31
  16	  33
  16	  36
  16	  37
  16	  38
  16	  40
  16	  43
  16	  45
  16	  50
  16	  53
  16	  55
  16	  58
  17	  18
  17	  19
  17	  23
  17	  24
  17	  27
  17	  28
  17	  31
  17	  39
  17	  42
  17	  45
  17	  50
  17	  51
  17	  53
  17	  54
  17	  55
  17	  56
  17	  59
  18	  21
  18	  22
  18	  23
  18	  26
  18	  27
  18	  30
  18	  34
  18	  35
  18	  36
  18	  38
  18	  39
  18	  41
  18	  42
  18	  50
  18	  51
  18	  52
  18	  56
  18	  58
  18	  59
  19	  20
  19	  21
  19	  23
  19	  24
  19	  26
  19	  30
  19	  33
  19	  35
  19	  38
  19	  41
  19	  44
  19	  47
  19	  49
  19	  51
  19	  52
  19	  53
  19	  55
  19	  56
  19	  57
  19	  59
  20	  23
  20	  25
  20	  26
  20	  29
  20	  30
  20	  31
  20	  32
  20	  34
  20	  35
  20	  37
  20	  40
  20	  41
  20	  42
  20	  43
  20	  44
  20	  45
  20	  47
  20	  48
  20	  49
  20	  50
  20	  52
  20	  54
  20	  56
  20	  58
  20	  59
  21	  22
  21	  23
  21	  24
  21	  25
  21	  26
  21	  28
  21	  30
  21	  31
  21	  33
  21	  34
  21	  35
  21	  36
  21	  40
  21	  41
  21	  44
  21	  48
  21	  49
  21	  50
  21	  51
  21	  52
  21	  53
  21	  58
  21	  59
  22	  25
  22	  27
  22	  28
  22	  31
  22	  35
  22	  36
  22	  39
  22	  43
  22	  45
  22	  46
  22	  47
  22	  48
  22	  52
  22	  54
  22	  58
  22	  59
  23	  25
  23	  27
  23	  28
  23	  30
  23	  31
  23	  32
  23	  35
  23	  38
  23	  39
  23	  40
  23	  43
  23	  44
  23	  47
  23	  49
  23	  57
  23	  58
  23	  59
  24	  25
  24	  32
  24	  34
  24	  35
  24	  37
  24	  38
  24	  39
  24	  43
  24	  45
  24	  46
  24	  47
  24	  48
  24	  50
  24	  51
  24	  52
  24	  55
  24	  56
  24	  57
  24	  59
  25	  27
  25	  30
  25	  31
  25	  32
  25	  34
  25	  36
  25	  37
  25	  41
  25	  42
  25	  43
  25	  48
  25	  49
  25	  52
  25	  53
  25	  54
  25	  55
  25	  56
  26	  32
  26	  33
  26	  35
  26	  39
  26	  41
  26	  42
  26	  43
  26	  44
  26	  46
  26	  48
  26	  50
  26	  53
  26	  58
  26	  59
  27	  28
  27	  30
  27	  31
  27	  32
  27	  34
  27	  36
  27	  40
  27	  44
  27	  48
  27	  49
  27	  51
  27	  56
  27	  57
  27	  59
  28	  29
  28	  31
  28	  33
  28	  36
  28	  37
  28	  38
  28	  39
  28	  44
  28	  45
  28	  51
  28	  52
  28	  53
  28	  58
  28	  59
  29	  31
  29	  33
  29	  34
  29	  35
  29	  36
  29	  37
  29	  38
  29	  41
  29	  42
  29	  43
  29	  45
  29	  48
  29	  49
  29	  50
  29	  52
  29	  53
  29	  54
  29	  57
  29	  58
  29	  59
  30	  33
  30	  35
  30	  38
  30	  39
  30	  40
  30	  43
  30	  44
  30	  45
  30	  46
  30	  47
  30	  52
  30	  55
  30	  56
  30	  57
  30	  58
  31	  32
  31	  39
  31	  40
  31	  42
  31	  43
  31	  49
  31	  52
  31	  58
  31	  59
  32	  36
  32	  37
  32	  41
  32	  42
  32	  44
  32	  45
  32	  47
  32	  48
  32	  50
  32	  53
  32	  56
  32	  57
  32	  58
  32	  59
  33	  34
  33	  38
  33	  40
  33	  42
  33	  44
  33	  46
  33	  50
  33	  51
  33	  53
  33	  54
  33	  58
  34	  35
  34	  38
  34	  40
  34	  41
  34	  44
  34	  45
  34	  48
  34	  51
  34	  54
  35	  36
  35	  37
  35	  38
  35	  41
  35	  44
  35	  46
  35	  47
  35	  50
  35	  51
  35	  55
  35	  58
  35	  59
  36	  38
  36	  39
  36	  41
  36	  43
  36	  44
  36	  47
  36	  51
  36	  53
  36	  55
  36	  56
  36	  57
  36	  58
  36	  59
  37	  39
  37	  42
  37	  44
  37	  48
  37	  52
  37	  53
  37	  55
  37	  57
  37	  58
  38	  40
  38	  41
  38	  42
  38	  43
  38	  45
  38	  47
  38	  50
  38	  51
  38	  52
  38	  53
  38	  54
  38	  57
  39	  40
  39	  44
  39	  46
  39	  48
  39	  49
  39	  50
  39	  51
  39	  52
  39	  58
  39	  59
  40	  43
  40	  44
  40	  45
  40	  46
  40	  50
  40	  52
  40	  56
  40	  58
  41	  43
  41	  45
  41	  46
  41	  47
  41	  48
  41	  50
  41	  53
  41	  54
  41	  55
  41	  56
  42	  43
  42	  44
  42	  45
  42	  46
  42	  48
  42	  49
  42	  51
  42	  53
  42	  54
  42	  55
  42	  56
  42	  57
  42	  59
  43	  44
  43	  46
  43	  47
  43	  49
  43	  50
  43	  51
  43	  53
  43	  56
  43	  57
  43	  59
  44	  46
  44	  48
  44	  51
  44	  52
  44	  53
  44	  56
  44	  57
  44	  58
  44	  59
  45	  49
  45	  54
  45	  56
  45	  57
  45	  58
  46	  48
  46	  49
  46	  50
  46	  56
  46	  57
  46	  59
  47	  54
  47	  55
  47	  56
  47	  57
  47	  59
  48	  50
  48	  51
  48	  52
  48	  53
  48	  54
  48	  55
  48	  58
  49	  51
  49	  52
  49	  53
  49	  54
  49	  55
  49	  57
  49	  58
  50	  51
  50	  52
  50	  53
  50	  54
  50	  57
  50	  59
  51	  59
  52	  53
  52	  58
  52	  59
  53	  54
  53	  55
  53	  58
  53	  59
  54	  57
  54	  58
  54	  59
  55	  59
  56	  57
  56	  59
  58	  59
;
